Geographic Exponential Decay
80 135 235 157 198 32 47 62 318 148 29 101 306 167 54 95 141 263 268 65 223 0 116 257 142 175 238 41 303 11 228 171 249 97 305 289 212 299 195 117 126 243 246 308 144 224 129 102 50 55 83 256 259 272 285 149 270 131 242 317 301 52 18 311 275 154 127 132 177 115 34 203 70 61 160 255 120 304 166 103 63
p edge 320 675
e 0 316 23.0
e 0 44 43.0
e 0 238 27.0
e 0 19 15.0
e 0 308 52.0
e 0 28 8.0
e 0 105 28.0
e 0 210 79.0
e 0 82 97.0
e 1 305 95.0
e 2 313 1.0
e 2 136 24.0
e 3 229 1.0
e 4 288 1.0
e 5 21 1.0
e 6 103 78.0
e 7 132 16.0
e 8 107 24.0
e 9 185 1.0
e 10 28 1.0
e 11 268 15.0
e 11 191 32.0
e 11 313 44.0
e 11 139 3.0
e 11 52 45.0
e 11 115 91.0
e 11 228 88.0
e 11 270 32.0
e 11 78 8.0
e 12 272 18.0
e 13 9 1.0
e 14 125 4.0
e 15 263 9.0
e 16 13 5.0
e 17 157 18.0
e 17 242 7.0
e 18 101 11.0
e 18 95 19.0
e 18 245 21.0
e 18 183 21.0
e 18 240 2.0
e 18 8 76.0
e 18 145 17.0
e 18 88 65.0
e 18 104 83.0
e 19 111 10.0
e 19 228 4.0
e 20 185 5.0
e 20 126 11.0
e 22 299 91.0
e 23 173 2.0
e 24 91 1.0
e 25 210 1.0
e 26 237 7.0
e 27 137 1.0
e 29 121 30.0
e 29 92 100.0
e 29 264 92.0
e 29 77 47.0
e 29 207 21.0
e 29 186 71.0
e 29 23 28.0
e 29 281 54.0
e 29 138 50.0
e 30 214 2.0
e 31 141 23.0
e 31 72 12.0
e 31 163 20.0
e 32 181 16.0
e 32 270 78.0
e 32 143 9.0
e 32 134 85.0
e 32 24 93.0
e 32 101 95.0
e 32 5 91.0
e 32 76 55.0
e 32 110 44.0
e 33 26 4.0
e 34 58 57.0
e 34 140 9.0
e 34 45 62.0
e 34 19 58.0
e 34 84 78.0
e 34 30 87.0
e 34 163 81.0
e 34 225 85.0
e 34 151 36.0
e 35 316 1.0
e 36 68 1.0
e 37 252 1.0
e 38 93 5.0
e 39 6 2.0
e 39 281 9.0
e 40 267 8.0
e 40 126 20.0
e 41 104 84.0
e 41 152 14.0
e 41 271 46.0
e 41 46 10.0
e 41 32 91.0
e 41 142 43.0
e 41 29 73.0
e 41 37 2.0
e 41 272 35.0
e 42 246 19.0
e 43 186 11.0
e 43 143 9.0
e 47 58 55.0
e 47 307 11.0
e 47 3 4.0
e 47 51 86.0
e 47 7 19.0
e 47 310 41.0
e 47 248 28.0
e 47 301 1.0
e 47 167 49.0
e 48 194 9.0
e 48 146 3.0
e 49 195 80.0
e 49 4 9.0
e 50 54 40.0
e 50 67 38.0
e 50 101 89.0
e 50 172 28.0
e 50 295 33.0
e 50 264 48.0
e 50 282 46.0
e 50 38 81.0
e 50 25 3.0
e 52 259 88.0
e 52 10 43.0
e 52 213 37.0
e 52 231 5.0
e 52 312 92.0
e 52 188 23.0
e 52 208 74.0
e 52 183 80.0
e 53 314 1.0
e 53 46 10.0
e 53 203 13.0
e 54 11 99.0
e 54 267 64.0
e 54 20 88.0
e 54 55 36.0
e 54 102 90.0
e 54 118 76.0
e 54 91 4.0
e 54 208 94.0
e 55 132 99.0
e 55 1 74.0
e 55 195 36.0
e 55 262 8.0
e 55 310 98.0
e 55 135 98.0
e 55 202 16.0
e 55 93 83.0
e 56 174 8.0
e 56 96 6.0
e 57 298 1.0
e 59 21 3.0
e 60 222 1.0
e 61 108 40.0
e 61 96 12.0
e 61 162 52.0
e 61 117 80.0
e 61 189 60.0
e 61 283 48.0
e 61 239 12.0
e 61 276 12.0
e 61 95 15.0
e 62 31 48.0
e 62 67 12.0
e 62 115 28.0
e 62 211 16.0
e 62 176 35.0
e 62 98 50.0
e 62 200 52.0
e 62 89 40.0
e 62 245 11.0
e 63 115 72.0
e 63 179 36.0
e 63 228 2.0
e 63 191 43.0
e 63 309 2.0
e 63 257 92.0
e 63 68 23.0
e 63 45 8.0
e 63 131 31.0
e 64 33 3.0
e 65 152 69.0
e 65 200 80.0
e 65 256 68.0
e 65 50 100.0
e 65 146 16.0
e 65 170 24.0
e 65 62 92.0
e 65 278 46.0
e 65 51 5.0
e 66 280 4.0
e 69 94 5.0
e 70 252 85.0
e 70 92 8.0
e 70 197 17.0
e 70 155 66.0
e 70 133 100.0
e 70 214 24.0
e 70 257 37.0
e 70 47 92.0
e 70 275 32.0
e 71 132 79.0
e 73 42 2.0
e 74 201 1.0
e 75 84 1.0
e 78 18 24.0
e 79 69 1.0
e 79 184 1.0
e 80 314 1.0
e 81 122 4.0
e 83 153 32.0
e 83 233 51.0
e 83 14 3.0
e 83 234 16.0
e 83 53 38.0
e 83 22 49.0
e 83 224 31.0
e 83 27 25.0
e 83 243 50.0
e 85 246 4.0
e 86 0 20.0
e 86 60 6.0
e 87 300 2.0
e 87 73 2.0
e 90 296 5.0
e 95 83 51.0
e 95 289 84.0
e 95 52 42.0
e 95 230 35.0
e 95 280 74.0
e 95 34 89.0
e 95 309 12.0
e 97 278 63.0
e 97 216 47.0
e 97 222 56.0
e 97 268 41.0
e 97 105 20.0
e 97 12 27.0
e 97 226 74.0
e 97 279 39.0
e 97 265 6.0
e 99 212 31.0
e 100 15 6.0
e 101 178 40.0
e 101 243 13.0
e 101 94 97.0
e 101 16 24.0
e 101 241 61.0
e 101 163 17.0
e 102 95 92.0
e 102 277 66.0
e 102 318 88.0
e 102 130 98.0
e 102 221 45.0
e 102 35 49.0
e 102 80 39.0
e 102 317 30.0
e 103 156 86.0
e 103 164 4.0
e 103 97 45.0
e 103 213 28.0
e 103 202 29.0
e 103 169 10.0
e 103 275 96.0
e 103 126 18.0
e 106 75 1.0
e 107 57 19.0
e 107 88 6.0
e 108 209 1.0
e 109 275 39.0
e 112 36 3.0
e 113 111 2.0
e 114 41 32.0
e 115 272 85.0
e 115 135 6.0
e 115 147 98.0
e 115 157 2.0
e 115 17 83.0
e 115 40 76.0
e 116 299 99.0
e 116 44 48.0
e 116 49 34.0
e 116 39 3.0
e 116 204 53.0
e 116 198 24.0
e 116 292 30.0
e 116 253 10.0
e 116 190 45.0
e 117 43 37.0
e 117 253 25.0
e 117 187 51.0
e 117 226 76.0
e 117 279 90.0
e 117 56 24.0
e 117 194 39.0
e 117 145 69.0
e 119 288 2.0
e 120 48 7.0
e 120 131 8.0
e 120 54 6.0
e 120 55 87.0
e 120 199 14.0
e 120 171 78.0
e 120 212 62.0
e 120 59 76.0
e 120 71 87.0
e 123 2 1.0
e 124 282 2.0
e 126 157 21.0
e 126 100 90.0
e 126 110 57.0
e 126 193 89.0
e 126 61 91.0
e 126 198 59.0
e 127 161 33.0
e 127 135 16.0
e 127 302 73.0
e 127 63 10.0
e 127 190 16.0
e 127 70 82.0
e 127 247 5.0
e 127 105 67.0
e 127 194 20.0
e 128 201 2.0
e 129 64 43.0
e 129 106 33.0
e 129 65 50.0
e 129 74 18.0
e 129 237 72.0
e 129 189 96.0
e 129 171 79.0
e 129 234 86.0
e 129 262 51.0
e 131 204 89.0
e 131 293 1.0
e 131 276 84.0
e 131 66 69.0
e 131 277 88.0
e 131 244 85.0
e 131 72 8.0
e 132 207 71.0
e 132 283 87.0
e 132 262 30.0
e 132 85 6.0
e 132 76 98.0
e 132 129 93.0
e 133 98 7.0
e 133 147 11.0
e 135 126 25.0
e 135 77 93.0
e 135 78 65.0
e 135 137 50.0
e 135 187 22.0
e 135 79 43.0
e 136 125 12.0
e 136 148 31.0
e 140 212 70.0
e 141 81 3.0
e 141 250 40.0
e 141 142 36.0
e 141 144 58.0
e 141 82 66.0
e 141 86 89.0
e 141 236 33.0
e 141 99 61.0
e 142 87 73.0
e 142 89 42.0
e 142 205 66.0
e 142 148 55.0
e 142 203 77.0
e 142 90 60.0
e 142 228 53.0
e 144 101 15.0
e 144 251 47.0
e 144 225 8.0
e 144 221 61.0
e 144 102 71.0
e 144 284 54.0
e 144 227 2.0
e 144 195 76.0
e 148 159 31.0
e 148 149 71.0
e 148 284 81.0
e 148 218 4.0
e 148 103 49.0
e 148 155 25.0
e 148 285 19.0
e 149 223 36.0
e 149 107 66.0
e 149 202 72.0
e 149 284 37.0
e 149 108 79.0
e 149 109 99.0
e 149 112 24.0
e 149 167 87.0
e 150 113 4.0
e 153 192 23.0
e 153 114 1.0
e 154 153 80.0
e 154 195 44.0
e 154 290 11.0
e 154 212 91.0
e 154 115 94.0
e 154 243 54.0
e 154 116 97.0
e 154 130 34.0
e 154 263 68.0
e 156 117 55.0
e 157 285 19.0
e 157 286 3.0
e 157 299 71.0
e 157 118 92.0
e 157 169 56.0
e 157 300 40.0
e 158 119 1.0
e 160 131 97.0
e 160 120 60.0
e 160 263 4.0
e 160 318 56.0
e 160 132 27.0
e 160 121 40.0
e 160 154 27.0
e 160 122 5.0
e 160 123 27.0
e 165 124 2.0
e 166 148 28.0
e 166 241 39.0
e 166 127 38.0
e 166 128 76.0
e 166 200 41.0
e 166 133 84.0
e 166 315 5.0
e 166 227 35.0
e 166 275 73.0
e 167 134 81.0
e 167 219 20.0
e 167 135 3.0
e 167 257 47.0
e 167 136 36.0
e 167 318 9.0
e 167 138 10.0
e 168 139 1.0
e 171 192 89.0
e 171 140 91.0
e 171 178 61.0
e 171 141 59.0
e 171 311 86.0
e 171 202 33.0
e 171 142 35.0
e 172 309 7.0
e 172 285 91.0
e 174 274 7.0
e 175 168 49.0
e 175 273 84.0
e 175 150 87.0
e 175 233 43.0
e 175 184 32.0
e 175 144 12.0
e 175 149 83.0
e 175 151 1.0
e 175 217 42.0
e 177 156 80.0
e 177 157 20.0
e 177 164 58.0
e 177 197 50.0
e 177 158 43.0
e 177 159 99.0
e 177 215 52.0
e 177 160 70.0
e 177 170 56.0
e 180 285 58.0
e 180 248 10.0
e 182 244 1.0
e 188 274 8.0
e 195 161 46.0
e 195 162 6.0
e 195 165 58.0
e 195 274 9.0
e 195 268 10.0
e 196 241 9.0
e 198 166 7.0
e 198 182 42.0
e 198 254 75.0
e 198 167 66.0
e 198 171 8.0
e 198 266 28.0
e 198 172 4.0
e 203 188 52.0
e 203 173 78.0
e 203 174 91.0
e 203 230 40.0
e 203 175 26.0
e 203 199 96.0
e 203 229 12.0
e 205 301 81.0
e 206 192 7.0
e 209 176 12.0
e 212 177 36.0
e 212 179 39.0
e 212 235 34.0
e 212 223 95.0
e 212 294 81.0
e 219 311 40.0
e 220 180 14.0
e 220 181 10.0
e 220 193 4.0
e 223 195 91.0
e 223 196 18.0
e 223 245 36.0
e 223 206 56.0
e 223 198 49.0
e 223 224 6.0
e 223 203 87.0
e 224 205 95.0
e 224 209 88.0
e 224 211 68.0
e 224 212 65.0
e 224 215 2.0
e 224 216 3.0
e 224 275 24.0
e 228 217 84.0
e 228 218 72.0
e 228 245 90.0
e 228 219 17.0
e 228 232 100.0
e 232 220 1.0
e 235 238 83.0
e 235 221 44.0
e 235 223 72.0
e 235 224 75.0
e 235 228 10.0
e 235 231 68.0
e 235 276 19.0
e 235 232 22.0
e 237 235 33.0
e 238 236 34.0
e 238 239 71.0
e 238 290 85.0
e 238 237 41.0
e 238 240 54.0
e 238 241 3.0
e 238 287 96.0
e 242 238 21.0
e 242 285 34.0
e 242 243 94.0
e 242 246 53.0
e 242 247 79.0
e 242 249 36.0
e 242 250 55.0
e 242 251 32.0
e 243 246 61.0
e 243 249 19.0
e 243 254 33.0
e 243 255 29.0
e 243 256 25.0
e 246 285 3.0
e 246 249 91.0
e 246 254 58.0
e 246 255 28.0
e 246 266 17.0
e 249 255 100.0
e 249 256 45.0
e 249 257 38.0
e 249 258 30.0
e 249 259 55.0
e 249 260 44.0
e 255 308 66.0
e 255 256 17.0
e 255 242 12.0
e 255 257 97.0
e 255 258 29.0
e 255 259 77.0
e 256 246 45.0
e 256 257 13.0
e 256 259 16.0
e 256 315 32.0
e 256 260 6.0
e 257 293 34.0
e 257 243 16.0
e 257 259 20.0
e 259 261 58.0
e 259 263 40.0
e 259 265 52.0
e 259 268 20.0
e 263 317 64.0
e 263 249 38.0
e 263 255 17.0
e 263 256 93.0
e 263 268 94.0
e 268 257 64.0
e 268 261 80.0
e 268 269 88.0
e 268 270 14.0
e 270 259 68.0
e 270 263 92.0
e 270 269 4.0
e 270 271 57.0
e 270 272 96.0
e 270 273 99.0
e 272 268 80.0
e 272 275 13.0
e 272 276 40.0
e 272 285 65.0
e 272 286 14.0
e 275 304 93.0
e 275 270 69.0
e 275 285 16.0
e 285 286 46.0
e 286 275 49.0
e 286 287 28.0
e 289 272 43.0
e 289 285 12.0
e 289 286 27.0
e 289 290 15.0
e 289 303 78.0
e 289 291 30.0
e 289 292 6.0
e 289 293 63.0
e 296 289 46.0
e 297 291 2.0
e 299 292 90.0
e 299 293 20.0
e 299 294 90.0
e 299 295 1.0
e 299 296 19.0
e 299 310 88.0
e 301 297 11.0
e 301 298 51.0
e 301 299 92.0
e 301 302 3.0
e 301 303 97.0
e 301 304 76.0
e 301 305 2.0
e 303 304 36.0
e 303 305 31.0
e 303 306 13.0
e 303 307 53.0
e 303 308 26.0
e 303 310 43.0
e 303 311 59.0
e 304 305 76.0
e 304 306 47.0
e 304 308 67.0
e 304 310 13.0
e 304 311 78.0
e 304 312 47.0
e 305 306 31.0
e 305 308 33.0
e 305 310 51.0
e 305 311 60.0
e 305 312 70.0
e 306 308 6.0
e 306 301 90.0
e 306 311 62.0
e 306 317 84.0
e 306 318 24.0
e 306 319 89.0
e 308 311 17.0
e 308 317 74.0
e 308 318 27.0
e 311 317 61.0
e 311 318 20.0
e 317 303 53.0
e 317 304 41.0
e 317 305 53.0
e 317 318 56.0
e 318 319 87.0
